
Gurobi 11.0.0 (win64, C++) logging started Tue Jul 29 14:00:11 2025

Set parameter TokenServer to value "141.76.38.119"
### START HEURISTIC APPROACH APPROACH ###
ProblemVariant: 1
### START PREPROCESSING ###
## Start start solution procedure ##
Start solution with 8 Vehicles and total costs 1467.04 in 43.1545 s.
### END PREPROCESSING ###
Route 0 0-4-0 : weight util 0.150000 | volume util 0.180844 | infeasible with packing heuristic | feasible with CP model
Route 1 0-29-26-2-3-0 : weight util 0.662500 | volume util 0.670222 | infeasible with packing heuristic | feasible with CP model
Route 2 0-5-6-7-32-12-0 : weight util 0.421250 | volume util 0.633978 | infeasible with packing heuristic | feasible with CP model
Route 3 0-8-9-10-0 : weight util 0.281250 | volume util 0.599267 | infeasible with packing heuristic | feasible with CP model
Route 4 0-16-28-27-14-0 : weight util 0.487500 | volume util 0.571489 | infeasible with packing heuristic | feasible with CP model
Route 5 0-19-21-18-17-15-31-0 : weight util 0.481250 | volume util 0.607422 | infeasible with packing heuristic | feasible with CP model
Route 6 0-22-20-23-24-25-0 : weight util 0.568750 | volume util 0.668178 | infeasible with packing heuristic | feasible with CP model
Route 7 0-11-13-1-30-0 : weight util 0.618750 | volume util 0.600822 | infeasible with packing heuristic | feasible with CP model
